************************************************************************
file with basedata            : cm159_.bas
initial value random generator: 435802058
************************************************************************
projects                      :  1
jobs (incl. supersource/sink ):  18
horizon                       :  92
RESOURCES
  - renewable                 :  2   R
  - nonrenewable              :  2   N
  - doubly constrained        :  0   D
************************************************************************
PROJECT INFORMATION:
pronr.  #jobs rel.date duedate tardcost  MPM-Time
    1     16      0       44        7       44
************************************************************************
PRECEDENCE RELATIONS:
jobnr.    #modes  #successors   successors
   1        1          3           2   3   4
   2        1          2           8  11
   3        1          3           8  10  11
   4        1          2           5   8
   5        1          3           6  10  12
   6        1          3           7   9  16
   7        1          1          15
   8        1          2          12  14
   9        1          2          11  17
  10        1          3          13  14  15
  11        1          1          15
  12        1          2          13  17
  13        1          1          16
  14        1          2          16  17
  15        1          1          18
  16        1          1          18
  17        1          1          18
  18        1          0        
************************************************************************
REQUESTS/DURATIONS:
jobnr. mode duration  R 1  R 2  N 1  N 2
------------------------------------------------------------------------
  1      1     0       0    0    0    0
  2      1     8       0    5    3    6
  3      1     7       5    0    4    8
  4      1    10       7    0    6    1
  5      1    10       8    0    9    3
  6      1     4       0    9    5    3
  7      1     4       4    0   10    9
  8      1     7       6    0    8   10
  9      1     5       3    0    3    5
 10      1     3       4    0    9    5
 11      1     7       0    8    3    8
 12      1     6       9    0    3   10
 13      1     2       0    9    3    4
 14      1     3       0    2    7    6
 15      1     8       7    0    4    4
 16      1     3       0    8    4    5
 17      1     5       0    5    6    6
 18      1     0       0    0    0    0
************************************************************************
RESOURCEAVAILABILITIES:
  R 1  R 2  N 1  N 2
   14   18   87   93
************************************************************************
